
Gurobi 6.5.2 (linux64) logging started Wed Mar 15 12:54:38 2017


Gurobi 6.5.2 (linux64) logging started Wed Mar 15 12:54:38 2017

Optimize a model with 201 rows, 3565 columns and 7133 nonzeros
Coefficient statistics:
  Matrix range    [1e+00, 2e+00]
  Objective range [1e+00, 1e+02]
  Bounds range    [1e+00, 1e+00]
  RHS range       [1e+00, 1e+00]
Presolve removed 100 rows and 98 columns
Presolve time: 0.01s
Presolved: 101 rows, 3467 columns, 6935 nonzeros
Variable types: 0 continuous, 3467 integer (3467 binary)

Root relaxation: objective 9.160000e+02, 149 iterations, 0.00 seconds

    Nodes    |    Current Node    |     Objective Bounds      |     Work
 Expl Unexpl |  Obj  Depth IntInf | Incumbent    BestBd   Gap | It/Node Time

     0     0  916.00000    0   12          -  916.00000      -     -    0s
     0     0  916.00000    0   25          -  916.00000      -     -    0s
     0     0  916.50000    0   16          -  916.50000      -     -    0s
     0     0  916.70000    0   30          -  916.70000      -     -    0s
     0     0  916.70000    0   30          -  916.70000      -     -    0s
     0     2  916.70000    0   30          -  916.70000      -     -    0s
  3871  2336 1101.00000  190    -          -  921.80000      -   6.6    5s
  8367  6046  940.08333   25   35          -  923.66667      -   6.5   10s

Cutting planes:
  Gomory: 7
  Flow cover: 2
  Zero half: 5
  Lazy constraints: 918

Explored 8481 nodes (55272 simplex iterations) in 10.03 seconds
Thread count was 8 (of 8 available processors)

Time limit reached
Best objective -, best bound 9.240000000000e+02, gap -
